sat
(
  (define-fun inv ((x!0 Int) (x!1 Int)) Bool
    (and (or (not (<= x!0 99)) (not (>= x!1 100)))
         (not (<= x!1 49))
         (or (not (<= x!1 50)) (not (>= x!0 51)))
         (or (not (<= x!1 51)) (not (>= x!0 52)))
         (or (not (<= x!1 52)) (not (>= x!0 53)))
         (or (not (<= x!1 53)) (not (>= x!0 54)))
         (or (not (<= x!1 54)) (not (>= x!0 55)))
         (or (not (<= x!1 55)) (not (>= x!0 56)))
         (or (not (<= x!1 56)) (not (>= x!0 57)))
         (or (not (<= x!1 57)) (not (>= x!0 58)))
         (or (not (<= x!1 58)) (not (>= x!0 59)))
         (or (not (<= x!1 59)) (not (>= x!0 60)))
         (or (not (<= x!1 60)) (not (>= x!0 61)))
         (or (not (<= x!1 61)) (not (>= x!0 62)))
         (or (not (<= x!1 62)) (not (>= x!0 63)))
         (or (not (<= x!1 63)) (not (>= x!0 64)))
         (or (not (<= x!1 64)) (not (>= x!0 65)))
         (or (not (<= x!1 65)) (not (>= x!0 66)))
         (or (not (<= x!1 66)) (not (>= x!0 67)))
         (or (not (<= x!1 67)) (not (>= x!0 68)))
         (or (not (<= x!1 68)) (not (>= x!0 69)))
         (or (not (<= x!1 69)) (not (>= x!0 70)))
         (or (not (<= x!1 70)) (not (>= x!0 71)))
         (or (not (<= x!1 71)) (not (>= x!0 72)))
         (or (not (<= x!1 72)) (not (>= x!0 73)))
         (or (not (<= x!1 73)) (not (>= x!0 74)))
         (or (not (<= x!1 74)) (not (>= x!0 75)))
         (or (not (<= x!1 75)) (not (>= x!0 76)))
         (or (not (<= x!1 76)) (not (>= x!0 77)))
         (or (not (<= x!1 77)) (not (>= x!0 78)))
         (or (not (<= x!1 78)) (not (>= x!0 79)))
         (or (not (<= x!1 79)) (not (>= x!0 80)))
         (or (not (<= x!1 80)) (not (>= x!0 81)))
         (or (not (<= x!1 81)) (not (>= x!0 82)))
         (or (not (<= x!1 82)) (not (>= x!0 83)))
         (or (not (<= x!1 84)) (not (>= x!0 85)))
         (or (not (<= x!1 83)) (not (>= x!0 84)))
         (or (not (<= x!1 85)) (not (>= x!0 86)))
         (or (not (<= x!1 86)) (not (>= x!0 87)))
         (or (not (<= x!1 87)) (not (>= x!0 88)))
         (or (not (<= x!1 90)) (not (>= x!0 91)))
         (or (not (<= x!1 88)) (not (>= x!0 89)))
         (or (not (<= x!1 89)) (not (>= x!0 90)))
         (or (not (<= x!1 91)) (not (>= x!0 92)))
         (or (not (<= x!1 92)) (not (>= x!0 93)))
         (or (not (<= x!1 93)) (not (>= x!0 94)))
         (or (not (<= x!1 98)) (not (>= x!0 99)))
         (or (not (<= x!1 94)) (not (>= x!0 95)))
         (or (not (<= x!1 95)) (not (>= x!0 96)))
         (or (not (<= x!1 96)) (not (>= x!0 97)))
         (or (not (<= x!1 97)) (not (>= x!0 98)))
         (or (not (<= x!1 99)) (not (>= x!0 100)))
         (not (>= x!1 101))
         (or (not (<= x!0 50)) (not (>= x!1 51)))
         (or (not (<= x!0 51)) (not (>= x!1 52)))
         (or (not (<= x!0 52)) (not (>= x!1 53)))
         (or (not (<= x!0 53)) (not (>= x!1 54)))
         (or (not (<= x!0 54)) (not (>= x!1 55)))
         (or (not (<= x!0 55)) (not (>= x!1 56)))
         (or (not (<= x!0 56)) (not (>= x!1 57)))
         (or (not (<= x!0 57)) (not (>= x!1 58)))
         (or (not (<= x!0 58)) (not (>= x!1 59)))
         (or (not (<= x!0 59)) (not (>= x!1 60)))
         (or (not (<= x!0 60)) (not (>= x!1 61)))
         (or (not (<= x!0 61)) (not (>= x!1 62)))
         (or (not (<= x!0 62)) (not (>= x!1 63)))
         (or (not (<= x!0 63)) (not (>= x!1 64)))
         (or (not (<= x!0 64)) (not (>= x!1 65)))
         (or (not (<= x!0 65)) (not (>= x!1 66)))
         (or (not (<= x!0 66)) (not (>= x!1 67)))
         (or (not (<= x!0 67)) (not (>= x!1 68)))
         (or (not (<= x!0 68)) (not (>= x!1 69)))
         (or (not (<= x!0 69)) (not (>= x!1 70)))
         (or (not (<= x!0 70)) (not (>= x!1 71)))
         (or (not (<= x!0 71)) (not (>= x!1 72)))
         (or (not (<= x!0 72)) (not (>= x!1 73)))
         (or (not (<= x!0 73)) (not (>= x!1 74)))
         (or (not (<= x!0 74)) (not (>= x!1 75)))
         (or (not (<= x!0 75)) (not (>= x!1 76)))
         (or (not (<= x!0 76)) (not (>= x!1 77)))
         (or (not (<= x!0 77)) (not (>= x!1 78)))
         (or (not (<= x!0 78)) (not (>= x!1 79)))
         (or (not (<= x!0 79)) (not (>= x!1 80)))
         (or (not (<= x!0 80)) (not (>= x!1 81)))
         (or (not (<= x!0 81)) (not (>= x!1 82)))
         (or (not (<= x!0 82)) (not (>= x!1 83)))
         (or (not (<= x!0 83)) (not (>= x!1 84)))
         (or (not (<= x!0 84)) (not (>= x!1 85)))
         (or (not (<= x!0 85)) (not (>= x!1 86)))
         (or (not (<= x!0 86)) (not (>= x!1 87)))
         (or (not (<= x!0 87)) (not (>= x!1 88)))
         (or (not (<= x!0 88)) (not (>= x!1 89)))
         (or (not (<= x!0 89)) (not (>= x!1 90)))
         (or (not (<= x!0 90)) (not (>= x!1 91)))
         (or (not (<= x!0 91)) (not (>= x!1 92)))
         (or (not (<= x!0 92)) (not (>= x!1 93)))
         (or (not (<= x!0 93)) (not (>= x!1 94)))
         (or (not (<= x!0 94)) (not (>= x!1 95)))
         (or (not (<= x!0 95)) (not (>= x!1 96)))
         (or (not (<= x!0 96)) (not (>= x!1 97)))
         (or (not (<= x!0 97)) (not (>= x!1 98)))
         (or (not (<= x!0 98)) (not (>= x!1 99)))))
)
